(set-logic ALL)
(set-option :produce-models true)
(declare-sort BoundSet 0)
(declare-sort UnboundSet 0)
(set-option :finite-model-find true)
(declare-fun IsOutside (BoundSet) Bool)
(declare-fun IsSmall (BoundSet) Bool)
(declare-fun HasShortBrownHair (BoundSet) Bool)
(assert (not (=> (and (exists ((b BoundSet)) (IsOutside b)) (forall ((e BoundSet)) (=> (IsOutside e) (IsSmall e)))) (exists ((a BoundSet)) (and (IsSmall a) (HasShortBrownHair a))))))
(check-sat)
(get-model)